
;this file is automatically generated: Fri Jan 03 16:26:56 GMT 2020

;declarations generated

(declare-fun oclExcludes ( Int Int) Bool)
(declare-fun class9_Class9BoolAttr0 ( Int) Bool)
(declare-fun class9_Class9BoolAttr1 ( Int) Bool)
(declare-fun Cardinality ( Int) Int)
(declare-fun oclSelect ( Int Bool) Int)
(declare-fun obj_3bf1c949_03e6_431b_8f0f_c74bfc43cdd9 ( Int) Int)
(declare-fun Enum0 ( Int) Int)
(declare-fun Enum1 ( Int) Int)
(declare-fun Enum2 ( Int) Int)
(declare-fun type_dac405f1_bfaa_4e93_9e1a_bbfb447ddcf7_Class9 ( Int) Bool)
(declare-fun container_ ( Int) Int)
(declare-fun oclIncludes ( Int Int) Bool)
(declare-fun ObjAt ( Int Int) Int)

;formula(s) generated
(assert (! (forall ((c1 Int)(c2 Int)) (=> (and ( type_dac405f1_bfaa_4e93_9e1a_bbfb447ddcf7_Class9 c1 )  ( type_dac405f1_bfaa_4e93_9e1a_bbfb447ddcf7_Class9 c2 ) ) (or ( class9_Class9BoolAttr0 ( obj_3bf1c949_03e6_431b_8f0f_c74bfc43cdd9 c1 )  )  ( class9_Class9BoolAttr1 ( obj_3bf1c949_03e6_431b_8f0f_c74bfc43cdd9 c2 )  ) ))):named l0))
(assert (! (forall ((v Int)) (=> ( type_dac405f1_bfaa_4e93_9e1a_bbfb447ddcf7_Class9 v )  (not ( class9_Class9BoolAttr0 ( obj_3bf1c949_03e6_431b_8f0f_c74bfc43cdd9 v )  )  ))):named l1))
(assert (! (forall ((v Int)) (=> ( type_dac405f1_bfaa_4e93_9e1a_bbfb447ddcf7_Class9 v )  (not ( class9_Class9BoolAttr1 ( obj_3bf1c949_03e6_431b_8f0f_c74bfc43cdd9 v )  )  ))):named l2))
(assert (exists ((o Int)) ( type_dac405f1_bfaa_4e93_9e1a_bbfb447ddcf7_Class9 ( obj_3bf1c949_03e6_431b_8f0f_c74bfc43cdd9 o )  ) ))

 ;end of formula 